n_res = 4;
rcap = [6, 8, 131, 149];
rtype = [1, 1, 2, 2];
n_tasks = 20;
modes = [ {1, 2, 3}, {4, 5, 6}, {7, 8, 9}, {10, 11, 12}, {13, 14, 15}, {16, 17, 18}, {19, 20, 21}, {22, 23, 24}, {25, 26, 27}, {28, 29, 30}, {31, 32, 33}, {34, 35, 36}, {37, 38, 39}, {40, 41, 42}, {43, 44, 45}, {46, 47, 48}, {49, 50, 51}, {52, 53, 54}, {55, 56, 57}, {58, 59, 60} ];
succ = [ {4, 10, 15}, {11}, {6, 10}, {5, 7, 12}, {9}, {8, 11, 15}, {8, 9, 17}, {13, 14, 16}, {13, 20}, {11}, {12, 14, 18}, {13}, {19}, {19, 20}, {17, 19}, {18, 20}, {18}, {}, {}, {} ];
n_opt = 60;
dur = [5, 8, 10, 2, 3, 6, 7, 9, 10, 4, 6, 8, 3, 3, 3, 1, 2, 7, 6, 10, 10, 3, 6, 7, 2, 2, 6, 2, 9, 10, 1, 6, 8, 2, 5, 6, 1, 2, 4, 4, 8, 10, 1, 4, 10, 1, 1, 5, 3, 4, 4, 4, 5, 7, 1, 8, 8, 7, 7, 9];
rreq = [|  8,  0,  5,  0,  0,  0,  5,  0,  4,  0,  7,  2,  0,  2,  0,  5,  0,  0,  0,  0,  5,  2,  0,  0,  0,  4,  1,  3,  0,  3,  0,  9,  9,  4,  3,  0,  0,  8,  5,  6,  5,  0,  9,  0,  0,  1,  2,  0,  4,  4,  0,  9,  0,  7,  4,  4,  0,  0,  3,  3
        |  0,  9,  0,  4,  2,  1,  0,  5,  0,  7,  0,  0,  6,  0, 10,  0,  5,  3,  4,  3,  0,  0,  8,  6,  8,  0,  0,  0,  6,  0,  4,  0,  0,  0,  0,  5,  5,  0,  0,  0,  0,  4,  0,  8,  8,  0,  0,  1,  0,  0,  2,  0,  6,  0,  0,  0,  5,  6,  0,  0
        |  8,  6,  5,  4,  4,  3,  8,  8,  7, 10,  9,  9,  8,  5,  5,  9,  8,  6,  7,  7,  7,  4,  2,  1,  5,  5,  4,  5,  3,  3,  7,  7,  7,  6,  6,  6,  9,  8,  8,  2,  2,  2,  7,  6,  3, 10,  8,  2,  9,  7,  7,  4,  4,  4,  6,  4,  2,  3,  3,  3
        |  8,  6,  3,  8,  7,  3,  9,  8,  8,  8,  6,  2,  3,  5,  6,  7,  7,  6,  9,  7,  8,  7,  5,  5,  8,  8,  7,  8,  7,  6,  4,  4,  3,  9,  6,  4,  7,  7,  6,  6,  5,  5,  7,  5,  4,  8,  7,  4,  7,  4,  3,  7,  7,  6,  6,  3,  2, 10,  9,  6 |];
